************************************************************************
file with basedata            : mm52_.bas
initial value random generator: 2026569778
************************************************************************
projects                      :  1
jobs (incl. supersource/sink ):  12
horizon                       :  68
RESOURCES
  - renewable                 :  2   R
  - nonrenewable              :  2   N
  - doubly constrained        :  0   D
************************************************************************
PROJECT INFORMATION:
pronr.  #jobs rel.date duedate tardcost  MPM-Time
    1     10      0       18        0       18
************************************************************************
PRECEDENCE RELATIONS:
jobnr.    #modes  #successors   successors
   0        1          3           1   2   3
   1        3          2           5   8
   2        3          2           5   8
   3        3          3           4   9  10
   4        3          1           8
   5        3          2           6  10
   6        3          1           7
   7        3          1           9
   8        3          1          11
   9        3          1          11
  10        3          1          11
  11        1          0        
************************************************************************
REQUESTS/DURATIONS:
jobnr. mode duration  R 1  R 2  R 3  R 4  E(W 1)  E(W 2)  E(W 3)
------------------------------------------------------------------------
  0      1     0       0    0    0    0     0       0       0
  1      1     4       9    5    8    0    56      32       0
  2      1     4       7    6    0    9    52       0      36
  3      1     3       9    5    7    0    42      21       0
  4      1     3       7    5    0    7    36       0      21
  5      1     5       7    9    9    0    80      45       0
  6      1     3       5    5    0   10    30       0      30
  7      1     1       5    6    0    3    11       0       3
  8      1     1       8    4    0    4    12       0       4
  9      1     5       4    5    0    6    45       0      30
 10      1     3       3    7    6    0    30      18       0
 11      1     0       0    0    0    0     0       0       0
************************************************************************
RESOURCEAVAILABILITIES:
  R 1  R 2  R 3
   34   63   59
************************************************************************
RESOURCE LIMITS:
jobnr.  l(R 1)  u(R 1)  l(R 2)  u(R 2)  l(R 3)  u(R 3)
------------------------------------------------------------------------
  0        0       0       0       0       0       0
  1        8      14       4       8       0       0
  2        7      13       0       0       5       9
  3        8      14       4       7       0       0
  4        7      12       0       0       4       7
  5        9      16       5       9       0       0
  6        6      10       0       0       5      10
  7        6      11       0       0       2       3
  8        6      12       0       0       2       4
  9        5       9       0       0       3       6
 10        6      10       3       6       0       0
 11        0       0       0       0       0       0
************************************************************************
SCENARIOS:
------------------------------------------------------------------------
RESOURCE k = 1
s = 1: (0, 33, 52, 48, 28, 87, 30, 8, 18, 74, 30, 0)
s = 2: (0, 49, 59, 46, 32, 69, 29, 13, 25, 30, 20, 0)
s = 3: (0, 70, 40, 35, 25, 53, 24, 9, 19, 51, 26, 0)
s = 4: (0, 35, 37, 53, 31, 83, 26, 14, 13, 25, 38, 0)
s = 5: (0, 58, 37, 23, 20, 84, 32, 9, 17, 34, 29, 0)
s = 6: (0, 62, 48, 22, 37, 90, 28, 13, 17, 45, 20, 0)
s = 7: (0, 52, 70, 32, 29, 102, 27, 10, 13, 34, 24, 0)
s = 8: (0, 62, 43, 28, 50, 87, 22, 17, 12, 34, 36, 0)
s = 9: (0, 42, 34, 27, 60, 67, 22, 13, 10, 73, 28, 0)
s = 10: (0, 90, 49, 26, 34, 127, 35, 7, 12, 31, 25, 0)
s = 11: (0, 58, 51, 41, 24, 87, 36, 11, 16, 48, 46, 0)
s = 12: (0, 46, 48, 37, 30, 98, 20, 7, 12, 53, 50, 0)
s = 13: (0, 53, 50, 64, 67, 46, 32, 11, 14, 37, 37, 0)
s = 14: (0, 46, 45, 30, 37, 56, 20, 15, 7, 41, 24, 0)
s = 15: (0, 44, 48, 59, 31, 72, 37, 8, 20, 64, 53, 0)
s = 16: (0, 45, 49, 65, 31, 91, 45, 9, 12, 44, 31, 0)
s = 17: (0, 41, 63, 38, 30, 61, 33, 14, 13, 37, 22, 0)
s = 18: (0, 70, 93, 32, 25, 52, 23, 18, 12, 60, 31, 0)
s = 19: (0, 100, 55, 58, 35, 79, 31, 11, 8, 47, 17, 0)
s = 20: (0, 66, 33, 47, 25, 67, 31, 11, 17, 40, 42, 0)
s = 21: (0, 37, 51, 67, 34, 96, 25, 7, 8, 27, 26, 0)
s = 22: (0, 98, 63, 39, 36, 57, 48, 17, 18, 52, 21, 0)
s = 23: (0, 67, 45, 36, 25, 67, 32, 8, 7, 26, 25, 0)
s = 24: (0, 64, 28, 39, 55, 65, 29, 8, 9, 41, 43, 0)
s = 25: (0, 104, 52, 45, 38, 78, 38, 9, 16, 50, 33, 0)
s = 26: (0, 58, 46, 48, 44, 76, 32, 12, 12, 46, 34, 0)
s = 27: (0, 87, 38, 29, 32, 97, 32, 13, 8, 64, 38, 0)
s = 28: (0, 38, 89, 42, 27, 73, 55, 13, 19, 41, 23, 0)
s = 29: (0, 86, 47, 43, 47, 88, 28, 17, 11, 48, 24, 0)
s = 30: (0, 40, 41, 48, 25, 58, 32, 9, 14, 42, 41, 0)
s = 31: (0, 38, 52, 45, 42, 69, 44, 12, 17, 39, 28, 0)
s = 32: (0, 55, 57, 51, 25, 76, 35, 11, 9, 33, 34, 0)
s = 33: (0, 55, 78, 57, 27, 83, 28, 15, 11, 39, 26, 0)
s = 34: (0, 91, 76, 29, 54, 100, 47, 12, 12, 70, 23, 0)
s = 35: (0, 73, 88, 59, 36, 109, 31, 9, 14, 33, 27, 0)
s = 36: (0, 41, 49, 32, 35, 87, 26, 10, 14, 42, 28, 0)
s = 37: (0, 77, 41, 55, 46, 98, 18, 14, 15, 39, 53, 0)
s = 38: (0, 66, 34, 50, 24, 71, 21, 12, 9, 39, 30, 0)
s = 39: (0, 59, 49, 48, 26, 92, 37, 13, 10, 32, 46, 0)
s = 40: (0, 57, 38, 45, 36, 63, 20, 17, 14, 57, 47, 0)
s = 41: (0, 42, 32, 32, 24, 62, 27, 10, 10, 42, 18, 0)
s = 42: (0, 67, 64, 31, 25, 67, 22, 13, 19, 32, 20, 0)
s = 43: (0, 55, 43, 35, 52, 122, 42, 12, 11, 47, 16, 0)
s = 44: (0, 82, 70, 30, 38, 101, 28, 16, 15, 38, 20, 0)
s = 45: (0, 92, 49, 50, 49, 51, 36, 17, 15, 35, 29, 0)
s = 46: (0, 61, 56, 48, 42, 120, 39, 7, 9, 65, 27, 0)
s = 47: (0, 44, 41, 44, 29, 64, 28, 12, 10, 39, 42, 0)
s = 48: (0, 52, 46, 29, 23, 100, 41, 14, 11, 69, 53, 0)
s = 49: (0, 56, 39, 31, 34, 73, 27, 19, 14, 40, 23, 0)
s = 50: (0, 60, 65, 42, 31, 61, 50, 10, 10, 61, 28, 0)
s = 51: (0, 63, 59, 36, 42, 101, 37, 12, 11, 61, 25, 0)
s = 52: (0, 45, 83, 39, 30, 83, 37, 8, 16, 45, 25, 0)
s = 53: (0, 41, 40, 34, 32, 72, 28, 7, 12, 33, 32, 0)
s = 54: (0, 31, 40, 37, 35, 117, 38, 13, 10, 34, 27, 0)
s = 55: (0, 39, 73, 28, 29, 67, 41, 11, 12, 57, 30, 0)
s = 56: (0, 49, 30, 34, 24, 141, 22, 9, 10, 34, 41, 0)
s = 57: (0, 90, 59, 32, 48, 58, 35, 8, 12, 49, 23, 0)
s = 58: (0, 69, 31, 51, 50, 99, 40, 10, 11, 32, 24, 0)
s = 59: (0, 38, 71, 25, 22, 85, 22, 10, 14, 43, 26, 0)
s = 60: (0, 60, 33, 35, 58, 44, 39, 13, 10, 70, 35, 0)
s = 61: (0, 87, 37, 41, 32, 113, 25, 9, 12, 61, 32, 0)
s = 62: (0, 70, 51, 40, 31, 90, 26, 12, 16, 52, 29, 0)
s = 63: (0, 50, 33, 26, 39, 75, 31, 9, 14, 34, 44, 0)
s = 64: (0, 69, 29, 31, 39, 77, 27, 11, 12, 27, 26, 0)
s = 65: (0, 79, 58, 43, 50, 133, 24, 8, 7, 32, 30, 0)
s = 66: (0, 47, 67, 38, 35, 108, 36, 12, 9, 33, 36, 0)
s = 67: (0, 48, 44, 45, 26, 63, 29, 7, 11, 40, 22, 0)
s = 68: (0, 74, 67, 26, 43, 98, 32, 10, 13, 41, 37, 0)
s = 69: (0, 93, 48, 41, 38, 118, 42, 17, 14, 54, 26, 0)
s = 70: (0, 89, 35, 32, 36, 79, 33, 14, 18, 44, 31, 0)
s = 71: (0, 89, 52, 39, 44, 51, 16, 17, 10, 45, 38, 0)
s = 72: (0, 57, 60, 38, 38, 71, 31, 9, 10, 29, 26, 0)
s = 73: (0, 49, 39, 42, 52, 98, 18, 9, 9, 39, 20, 0)
s = 74: (0, 56, 56, 36, 19, 101, 27, 7, 18, 49, 34, 0)
s = 75: (0, 37, 35, 43, 39, 100, 26, 9, 12, 44, 26, 0)
s = 76: (0, 40, 68, 73, 26, 90, 25, 13, 13, 60, 32, 0)
s = 77: (0, 47, 61, 31, 41, 57, 20, 19, 13, 64, 28, 0)
s = 78: (0, 60, 62, 66, 57, 48, 47, 6, 8, 71, 24, 0)
s = 79: (0, 51, 49, 49, 39, 49, 27, 9, 12, 42, 22, 0)
s = 80: (0, 61, 64, 43, 62, 92, 25, 8, 14, 48, 26, 0)
s = 81: (0, 43, 54, 58, 39, 77, 36, 9, 10, 48, 19, 0)
s = 82: (0, 40, 85, 38, 41, 73, 37, 14, 16, 31, 40, 0)
s = 83: (0, 90, 73, 44, 41, 113, 23, 15, 11, 38, 41, 0)
s = 84: (0, 46, 40, 23, 68, 117, 44, 6, 11, 53, 27, 0)
s = 85: (0, 68, 38, 42, 36, 92, 26, 8, 19, 48, 23, 0)
s = 86: (0, 41, 92, 45, 41, 76, 28, 11, 15, 72, 32, 0)
s = 87: (0, 46, 36, 53, 35, 77, 21, 14, 14, 48, 22, 0)
s = 88: (0, 49, 49, 32, 34, 87, 37, 9, 12, 29, 21, 0)
s = 89: (0, 48, 54, 55, 55, 136, 31, 7, 15, 56, 18, 0)
s = 90: (0, 94, 61, 40, 37, 51, 20, 19, 12, 75, 25, 0)
s = 91: (0, 32, 49, 23, 33, 72, 31, 11, 15, 37, 32, 0)
s = 92: (0, 55, 61, 32, 35, 115, 43, 11, 10, 67, 56, 0)
s = 93: (0, 44, 63, 48, 47, 67, 53, 8, 11, 31, 21, 0)
s = 94: (0, 59, 52, 34, 47, 59, 39, 13, 21, 36, 32, 0)
s = 95: (0, 64, 31, 48, 37, 80, 22, 12, 10, 30, 26, 0)
s = 96: (0, 50, 72, 44, 26, 49, 28, 12, 10, 29, 23, 0)
s = 97: (0, 48, 52, 32, 27, 110, 19, 8, 9, 47, 40, 0)
s = 98: (0, 64, 84, 28, 38, 109, 25, 8, 13, 35, 18, 0)
s = 99: (0, 93, 45, 72, 33, 90, 26, 13, 8, 44, 38, 0)
s = 100: (0, 38, 65, 55, 32, 66, 37, 7, 18, 40, 26, 0)
s = 101: (0, 40, 89, 63, 42, 64, 33, 13, 12, 47, 44, 0)
s = 102: (0, 62, 57, 37, 42, 88, 19, 13, 17, 65, 30, 0)
s = 103: (0, 57, 37, 49, 23, 69, 49, 10, 11, 29, 28, 0)
s = 104: (0, 47, 44, 46, 34, 82, 21, 9, 15, 35, 23, 0)
s = 105: (0, 66, 54, 34, 51, 91, 39, 10, 13, 42, 51, 0)
s = 106: (0, 65, 48, 41, 24, 70, 17, 17, 11, 41, 19, 0)
s = 107: (0, 67, 58, 30, 31, 76, 32, 13, 8, 46, 30, 0)
s = 108: (0, 44, 34, 40, 39, 88, 37, 13, 17, 53, 28, 0)
s = 109: (0, 78, 43, 33, 47, 112, 29, 14, 8, 41, 40, 0)
s = 110: (0, 54, 50, 29, 57, 63, 27, 14, 15, 39, 49, 0)
s = 111: (0, 57, 65, 48, 31, 96, 38, 13, 9, 53, 19, 0)
s = 112: (0, 63, 58, 48, 41, 53, 38, 12, 11, 31, 22, 0)
s = 113: (0, 51, 28, 32, 20, 121, 32, 9, 14, 38, 21, 0)
s = 114: (0, 50, 71, 36, 51, 111, 22, 13, 18, 59, 29, 0)
s = 115: (0, 69, 31, 32, 48, 53, 35, 17, 11, 35, 30, 0)
s = 116: (0, 44, 45, 30, 22, 85, 28, 15, 10, 45, 34, 0)
s = 117: (0, 73, 51, 61, 34, 68, 44, 14, 13, 33, 44, 0)
s = 118: (0, 43, 72, 56, 39, 77, 29, 11, 9, 48, 26, 0)
s = 119: (0, 65, 65, 26, 41, 82, 26, 10, 15, 44, 20, 0)
s = 120: (0, 66, 54, 33, 32, 63, 27, 15, 14, 48, 52, 0)
s = 121: (0, 53, 42, 37, 43, 68, 22, 8, 18, 42, 37, 0)
s = 122: (0, 45, 45, 50, 37, 63, 20, 8, 8, 38, 26, 0)
s = 123: (0, 99, 67, 38, 44, 82, 23, 9, 15, 51, 33, 0)
s = 124: (0, 35, 84, 30, 43, 95, 31, 8, 8, 38, 29, 0)
s = 125: (0, 73, 57, 27, 41, 107, 28, 15, 15, 27, 38, 0)
s = 126: (0, 59, 64, 24, 39, 85, 21, 18, 12, 45, 20, 0)
s = 127: (0, 45, 51, 30, 34, 49, 27, 7, 9, 45, 26, 0)
s = 128: (0, 51, 51, 37, 48, 55, 36, 7, 12, 35, 20, 0)
s = 129: (0, 42, 32, 38, 31, 92, 26, 10, 14, 37, 17, 0)
s = 130: (0, 89, 41, 34, 33, 57, 38, 9, 7, 40, 29, 0)
s = 131: (0, 33, 97, 49, 57, 93, 27, 8, 12, 36, 36, 0)
s = 132: (0, 75, 53, 27, 36, 107, 39, 15, 9, 71, 27, 0)
s = 133: (0, 55, 54, 49, 42, 46, 28, 14, 10, 32, 21, 0)
s = 134: (0, 70, 32, 57, 63, 76, 50, 13, 15, 33, 28, 0)
s = 135: (0, 52, 60, 45, 58, 63, 30, 13, 9, 37, 17, 0)
s = 136: (0, 42, 44, 57, 32, 97, 17, 11, 13, 42, 49, 0)
s = 137: (0, 50, 32, 68, 23, 63, 33, 9, 11, 35, 31, 0)
s = 138: (0, 60, 46, 32, 40, 89, 37, 12, 17, 57, 55, 0)
s = 139: (0, 56, 62, 26, 43, 61, 35, 13, 8, 32, 47, 0)
s = 140: (0, 63, 39, 49, 41, 83, 25, 10, 11, 48, 29, 0)
s = 141: (0, 70, 37, 39, 22, 75, 46, 10, 13, 64, 22, 0)
s = 142: (0, 41, 44, 46, 35, 78, 22, 17, 15, 41, 33, 0)
s = 143: (0, 34, 51, 55, 58, 85, 30, 9, 10, 68, 23, 0)
s = 144: (0, 70, 37, 26, 34, 65, 18, 13, 18, 83, 21, 0)
s = 145: (0, 32, 72, 39, 44, 59, 19, 14, 9, 49, 30, 0)
s = 146: (0, 52, 51, 30, 33, 69, 38, 11, 8, 34, 35, 0)
s = 147: (0, 76, 58, 68, 25, 55, 41, 9, 14, 33, 17, 0)
s = 148: (0, 96, 66, 40, 37, 92, 24, 14, 9, 47, 33, 0)
s = 149: (0, 39, 72, 29, 24, 87, 29, 15, 15, 40, 25, 0)
s = 150: (0, 59, 37, 42, 26, 62, 40, 13, 11, 44, 34, 0)
s = 151: (0, 60, 45, 67, 52, 57, 22, 13, 10, 35, 24, 0)
s = 152: (0, 47, 49, 29, 44, 119, 27, 21, 15, 26, 32, 0)
s = 153: (0, 50, 37, 41, 31, 82, 31, 20, 15, 30, 32, 0)
s = 154: (0, 35, 84, 44, 46, 65, 26, 11, 16, 28, 36, 0)
s = 155: (0, 68, 81, 42, 59, 57, 34, 10, 11, 65, 35, 0)
s = 156: (0, 84, 75, 52, 50, 61, 24, 12, 18, 61, 20, 0)
s = 157: (0, 84, 48, 36, 41, 131, 34, 10, 14, 26, 23, 0)
s = 158: (0, 37, 41, 33, 38, 107, 21, 9, 14, 43, 32, 0)
s = 159: (0, 41, 71, 38, 59, 76, 26, 10, 10, 45, 37, 0)
s = 160: (0, 99, 56, 42, 44, 54, 35, 10, 17, 40, 23, 0)
s = 161: (0, 59, 53, 24, 27, 86, 38, 8, 8, 45, 35, 0)
s = 162: (0, 69, 60, 38, 41, 72, 54, 10, 16, 36, 36, 0)
s = 163: (0, 48, 76, 48, 55, 45, 21, 16, 9, 71, 16, 0)
s = 164: (0, 69, 54, 34, 32, 53, 28, 11, 12, 44, 35, 0)
s = 165: (0, 76, 45, 69, 30, 50, 21, 20, 12, 35, 28, 0)
s = 166: (0, 52, 49, 47, 29, 63, 25, 7, 11, 29, 29, 0)
s = 167: (0, 52, 59, 37, 27, 92, 21, 14, 15, 45, 37, 0)
s = 168: (0, 68, 42, 35, 26, 56, 40, 15, 17, 31, 30, 0)
s = 169: (0, 61, 37, 59, 35, 49, 19, 10, 7, 42, 42, 0)
s = 170: (0, 31, 37, 39, 38, 118, 41, 9, 8, 29, 38, 0)
s = 171: (0, 37, 37, 29, 51, 104, 38, 6, 13, 44, 36, 0)
s = 172: (0, 36, 33, 59, 23, 102, 27, 14, 15, 57, 22, 0)
s = 173: (0, 56, 33, 55, 42, 84, 25, 10, 8, 51, 36, 0)
s = 174: (0, 60, 37, 52, 24, 79, 25, 12, 20, 44, 37, 0)
s = 175: (0, 37, 35, 30, 37, 51, 33, 14, 15, 61, 27, 0)
s = 176: (0, 30, 54, 32, 23, 92, 20, 13, 7, 61, 34, 0)
s = 177: (0, 86, 36, 64, 52, 57, 32, 14, 9, 34, 32, 0)
s = 178: (0, 56, 83, 32, 45, 80, 29, 14, 17, 35, 32, 0)
s = 179: (0, 45, 65, 22, 27, 63, 51, 8, 21, 37, 34, 0)
s = 180: (0, 67, 32, 61, 47, 104, 30, 10, 9, 51, 33, 0)
s = 181: (0, 49, 59, 32, 25, 102, 23, 11, 12, 38, 20, 0)
s = 182: (0, 33, 71, 35, 25, 111, 28, 12, 7, 52, 43, 0)
s = 183: (0, 50, 62, 39, 35, 66, 40, 9, 10, 34, 27, 0)
s = 184: (0, 33, 33, 32, 25, 81, 22, 10, 14, 48, 28, 0)
s = 185: (0, 87, 64, 35, 38, 78, 31, 10, 9, 42, 28, 0)
s = 186: (0, 52, 28, 40, 50, 50, 26, 7, 20, 24, 35, 0)
s = 187: (0, 49, 81, 62, 50, 69, 23, 10, 14, 38, 34, 0)
s = 188: (0, 69, 29, 34, 30, 92, 34, 9, 8, 56, 18, 0)
s = 189: (0, 66, 73, 46, 35, 71, 31, 8, 12, 62, 40, 0)
s = 190: (0, 40, 46, 39, 26, 65, 37, 7, 18, 42, 46, 0)
s = 191: (0, 103, 85, 51, 27, 86, 26, 18, 12, 47, 33, 0)
s = 192: (0, 31, 57, 41, 60, 70, 21, 7, 9, 39, 22, 0)
s = 193: (0, 61, 47, 38, 39, 85, 41, 12, 12, 39, 30, 0)
s = 194: (0, 77, 32, 44, 36, 110, 29, 9, 7, 46, 21, 0)
s = 195: (0, 60, 57, 31, 37, 82, 38, 8, 15, 49, 25, 0)
s = 196: (0, 41, 52, 48, 44, 50, 35, 14, 10, 31, 28, 0)
s = 197: (0, 31, 68, 35, 43, 62, 26, 13, 10, 50, 21, 0)
s = 198: (0, 47, 86, 50, 43, 59, 36, 10, 13, 46, 29, 0)
s = 199: (0, 78, 61, 77, 32, 62, 27, 14, 14, 36, 34, 0)
s = 200: (0, 44, 64, 44, 34, 45, 24, 7, 15, 66, 37, 0)
------------------------------------------------------------------------
RESOURCE k = 2
s = 1: (0, 19, 0, 24, 0, 49, 0, 0, 0, 0, 18, 0)
s = 2: (0, 28, 0, 23, 0, 39, 0, 0, 0, 0, 12, 0)
s = 3: (0, 40, 0, 18, 0, 30, 0, 0, 0, 0, 16, 0)
s = 4: (0, 20, 0, 27, 0, 47, 0, 0, 0, 0, 23, 0)
s = 5: (0, 34, 0, 12, 0, 47, 0, 0, 0, 0, 18, 0)
s = 6: (0, 36, 0, 11, 0, 51, 0, 0, 0, 0, 12, 0)
s = 7: (0, 30, 0, 16, 0, 58, 0, 0, 0, 0, 15, 0)
s = 8: (0, 35, 0, 14, 0, 49, 0, 0, 0, 0, 22, 0)
s = 9: (0, 24, 0, 14, 0, 38, 0, 0, 0, 0, 17, 0)
s = 10: (0, 52, 0, 13, 0, 72, 0, 0, 0, 0, 15, 0)
s = 11: (0, 33, 0, 21, 0, 49, 0, 0, 0, 0, 28, 0)
s = 12: (0, 26, 0, 19, 0, 55, 0, 0, 0, 0, 30, 0)
s = 13: (0, 30, 0, 32, 0, 26, 0, 0, 0, 0, 23, 0)
s = 14: (0, 26, 0, 15, 0, 32, 0, 0, 0, 0, 14, 0)
s = 15: (0, 25, 0, 30, 0, 41, 0, 0, 0, 0, 32, 0)
s = 16: (0, 26, 0, 33, 0, 52, 0, 0, 0, 0, 19, 0)
s = 17: (0, 23, 0, 19, 0, 34, 0, 0, 0, 0, 13, 0)
s = 18: (0, 40, 0, 16, 0, 29, 0, 0, 0, 0, 19, 0)
s = 19: (0, 57, 0, 29, 0, 44, 0, 0, 0, 0, 10, 0)
s = 20: (0, 38, 0, 24, 0, 38, 0, 0, 0, 0, 26, 0)
s = 21: (0, 21, 0, 34, 0, 54, 0, 0, 0, 0, 16, 0)
s = 22: (0, 56, 0, 20, 0, 32, 0, 0, 0, 0, 13, 0)
s = 23: (0, 38, 0, 18, 0, 38, 0, 0, 0, 0, 15, 0)
s = 24: (0, 37, 0, 20, 0, 37, 0, 0, 0, 0, 26, 0)
s = 25: (0, 59, 0, 23, 0, 44, 0, 0, 0, 0, 20, 0)
s = 26: (0, 33, 0, 24, 0, 43, 0, 0, 0, 0, 21, 0)
s = 27: (0, 50, 0, 15, 0, 55, 0, 0, 0, 0, 23, 0)
s = 28: (0, 22, 0, 21, 0, 41, 0, 0, 0, 0, 14, 0)
s = 29: (0, 50, 0, 22, 0, 50, 0, 0, 0, 0, 14, 0)
s = 30: (0, 23, 0, 24, 0, 33, 0, 0, 0, 0, 25, 0)
s = 31: (0, 22, 0, 23, 0, 39, 0, 0, 0, 0, 17, 0)
s = 32: (0, 32, 0, 26, 0, 43, 0, 0, 0, 0, 21, 0)
s = 33: (0, 32, 0, 29, 0, 47, 0, 0, 0, 0, 16, 0)
s = 34: (0, 52, 0, 15, 0, 56, 0, 0, 0, 0, 14, 0)
s = 35: (0, 42, 0, 30, 0, 61, 0, 0, 0, 0, 16, 0)
s = 36: (0, 23, 0, 16, 0, 49, 0, 0, 0, 0, 17, 0)
s = 37: (0, 44, 0, 28, 0, 55, 0, 0, 0, 0, 32, 0)
s = 38: (0, 38, 0, 25, 0, 40, 0, 0, 0, 0, 18, 0)
s = 39: (0, 34, 0, 24, 0, 52, 0, 0, 0, 0, 28, 0)
s = 40: (0, 33, 0, 23, 0, 36, 0, 0, 0, 0, 29, 0)
s = 41: (0, 24, 0, 16, 0, 35, 0, 0, 0, 0, 11, 0)
s = 42: (0, 38, 0, 16, 0, 38, 0, 0, 0, 0, 12, 0)
s = 43: (0, 32, 0, 18, 0, 69, 0, 0, 0, 0, 10, 0)
s = 44: (0, 47, 0, 15, 0, 57, 0, 0, 0, 0, 12, 0)
s = 45: (0, 53, 0, 25, 0, 29, 0, 0, 0, 0, 18, 0)
s = 46: (0, 35, 0, 24, 0, 68, 0, 0, 0, 0, 17, 0)
s = 47: (0, 25, 0, 22, 0, 36, 0, 0, 0, 0, 26, 0)
s = 48: (0, 30, 0, 15, 0, 56, 0, 0, 0, 0, 32, 0)
s = 49: (0, 32, 0, 16, 0, 41, 0, 0, 0, 0, 14, 0)
s = 50: (0, 34, 0, 21, 0, 35, 0, 0, 0, 0, 17, 0)
s = 51: (0, 36, 0, 18, 0, 57, 0, 0, 0, 0, 15, 0)
s = 52: (0, 26, 0, 20, 0, 47, 0, 0, 0, 0, 15, 0)
s = 53: (0, 24, 0, 17, 0, 40, 0, 0, 0, 0, 19, 0)
s = 54: (0, 18, 0, 19, 0, 66, 0, 0, 0, 0, 16, 0)
s = 55: (0, 23, 0, 14, 0, 38, 0, 0, 0, 0, 18, 0)
s = 56: (0, 28, 0, 17, 0, 80, 0, 0, 0, 0, 25, 0)
s = 57: (0, 51, 0, 16, 0, 33, 0, 0, 0, 0, 14, 0)
s = 58: (0, 40, 0, 26, 0, 56, 0, 0, 0, 0, 15, 0)
s = 59: (0, 22, 0, 13, 0, 48, 0, 0, 0, 0, 16, 0)
s = 60: (0, 34, 0, 18, 0, 25, 0, 0, 0, 0, 21, 0)
s = 61: (0, 50, 0, 21, 0, 64, 0, 0, 0, 0, 19, 0)
s = 62: (0, 40, 0, 20, 0, 51, 0, 0, 0, 0, 18, 0)
s = 63: (0, 29, 0, 13, 0, 42, 0, 0, 0, 0, 26, 0)
s = 64: (0, 40, 0, 16, 0, 43, 0, 0, 0, 0, 16, 0)
s = 65: (0, 45, 0, 22, 0, 75, 0, 0, 0, 0, 18, 0)
s = 66: (0, 27, 0, 19, 0, 61, 0, 0, 0, 0, 22, 0)
s = 67: (0, 27, 0, 23, 0, 36, 0, 0, 0, 0, 13, 0)
s = 68: (0, 43, 0, 13, 0, 56, 0, 0, 0, 0, 22, 0)
s = 69: (0, 53, 0, 21, 0, 67, 0, 0, 0, 0, 16, 0)
s = 70: (0, 51, 0, 16, 0, 45, 0, 0, 0, 0, 19, 0)
s = 71: (0, 51, 0, 20, 0, 29, 0, 0, 0, 0, 23, 0)
s = 72: (0, 33, 0, 19, 0, 40, 0, 0, 0, 0, 16, 0)
s = 73: (0, 28, 0, 21, 0, 55, 0, 0, 0, 0, 12, 0)
s = 74: (0, 32, 0, 18, 0, 57, 0, 0, 0, 0, 21, 0)
s = 75: (0, 21, 0, 22, 0, 56, 0, 0, 0, 0, 16, 0)
s = 76: (0, 23, 0, 37, 0, 51, 0, 0, 0, 0, 20, 0)
s = 77: (0, 27, 0, 16, 0, 32, 0, 0, 0, 0, 17, 0)
s = 78: (0, 35, 0, 33, 0, 27, 0, 0, 0, 0, 15, 0)
s = 79: (0, 29, 0, 25, 0, 28, 0, 0, 0, 0, 13, 0)
s = 80: (0, 35, 0, 22, 0, 52, 0, 0, 0, 0, 16, 0)
s = 81: (0, 25, 0, 29, 0, 44, 0, 0, 0, 0, 11, 0)
s = 82: (0, 23, 0, 19, 0, 41, 0, 0, 0, 0, 24, 0)
s = 83: (0, 52, 0, 22, 0, 64, 0, 0, 0, 0, 25, 0)
s = 84: (0, 27, 0, 12, 0, 66, 0, 0, 0, 0, 16, 0)
s = 85: (0, 39, 0, 21, 0, 52, 0, 0, 0, 0, 14, 0)
s = 86: (0, 24, 0, 23, 0, 43, 0, 0, 0, 0, 19, 0)
s = 87: (0, 27, 0, 27, 0, 44, 0, 0, 0, 0, 13, 0)
s = 88: (0, 28, 0, 16, 0, 49, 0, 0, 0, 0, 13, 0)
s = 89: (0, 28, 0, 28, 0, 76, 0, 0, 0, 0, 11, 0)
s = 90: (0, 54, 0, 20, 0, 29, 0, 0, 0, 0, 15, 0)
s = 91: (0, 19, 0, 12, 0, 41, 0, 0, 0, 0, 19, 0)
s = 92: (0, 32, 0, 16, 0, 65, 0, 0, 0, 0, 34, 0)
s = 93: (0, 25, 0, 24, 0, 38, 0, 0, 0, 0, 13, 0)
s = 94: (0, 34, 0, 17, 0, 34, 0, 0, 0, 0, 19, 0)
s = 95: (0, 37, 0, 24, 0, 45, 0, 0, 0, 0, 16, 0)
s = 96: (0, 29, 0, 22, 0, 28, 0, 0, 0, 0, 14, 0)
s = 97: (0, 28, 0, 16, 0, 62, 0, 0, 0, 0, 24, 0)
s = 98: (0, 37, 0, 14, 0, 62, 0, 0, 0, 0, 11, 0)
s = 99: (0, 53, 0, 36, 0, 51, 0, 0, 0, 0, 23, 0)
s = 100: (0, 22, 0, 28, 0, 37, 0, 0, 0, 0, 16, 0)
s = 101: (0, 23, 0, 32, 0, 36, 0, 0, 0, 0, 27, 0)
s = 102: (0, 35, 0, 19, 0, 49, 0, 0, 0, 0, 18, 0)
s = 103: (0, 33, 0, 25, 0, 39, 0, 0, 0, 0, 17, 0)
s = 104: (0, 27, 0, 23, 0, 46, 0, 0, 0, 0, 14, 0)
s = 105: (0, 38, 0, 17, 0, 51, 0, 0, 0, 0, 31, 0)
s = 106: (0, 38, 0, 21, 0, 40, 0, 0, 0, 0, 12, 0)
s = 107: (0, 38, 0, 15, 0, 43, 0, 0, 0, 0, 18, 0)
s = 108: (0, 25, 0, 20, 0, 50, 0, 0, 0, 0, 17, 0)
s = 109: (0, 45, 0, 17, 0, 63, 0, 0, 0, 0, 24, 0)
s = 110: (0, 31, 0, 15, 0, 35, 0, 0, 0, 0, 29, 0)
s = 111: (0, 33, 0, 24, 0, 54, 0, 0, 0, 0, 12, 0)
s = 112: (0, 36, 0, 24, 0, 30, 0, 0, 0, 0, 13, 0)
s = 113: (0, 29, 0, 16, 0, 68, 0, 0, 0, 0, 13, 0)
s = 114: (0, 29, 0, 18, 0, 63, 0, 0, 0, 0, 18, 0)
s = 115: (0, 40, 0, 16, 0, 30, 0, 0, 0, 0, 18, 0)
s = 116: (0, 25, 0, 15, 0, 48, 0, 0, 0, 0, 21, 0)
s = 117: (0, 42, 0, 31, 0, 39, 0, 0, 0, 0, 27, 0)
s = 118: (0, 25, 0, 28, 0, 43, 0, 0, 0, 0, 16, 0)
s = 119: (0, 37, 0, 13, 0, 46, 0, 0, 0, 0, 12, 0)
s = 120: (0, 38, 0, 17, 0, 36, 0, 0, 0, 0, 31, 0)
s = 121: (0, 31, 0, 19, 0, 38, 0, 0, 0, 0, 23, 0)
s = 122: (0, 26, 0, 25, 0, 35, 0, 0, 0, 0, 16, 0)
s = 123: (0, 57, 0, 19, 0, 46, 0, 0, 0, 0, 20, 0)
s = 124: (0, 20, 0, 15, 0, 54, 0, 0, 0, 0, 18, 0)
s = 125: (0, 42, 0, 14, 0, 61, 0, 0, 0, 0, 23, 0)
s = 126: (0, 34, 0, 12, 0, 48, 0, 0, 0, 0, 12, 0)
s = 127: (0, 26, 0, 15, 0, 28, 0, 0, 0, 0, 16, 0)
s = 128: (0, 29, 0, 19, 0, 31, 0, 0, 0, 0, 12, 0)
s = 129: (0, 24, 0, 19, 0, 52, 0, 0, 0, 0, 10, 0)
s = 130: (0, 51, 0, 17, 0, 32, 0, 0, 0, 0, 18, 0)
s = 131: (0, 19, 0, 25, 0, 53, 0, 0, 0, 0, 22, 0)
s = 132: (0, 43, 0, 14, 0, 61, 0, 0, 0, 0, 17, 0)
s = 133: (0, 32, 0, 25, 0, 26, 0, 0, 0, 0, 13, 0)
s = 134: (0, 40, 0, 29, 0, 43, 0, 0, 0, 0, 17, 0)
s = 135: (0, 30, 0, 23, 0, 36, 0, 0, 0, 0, 10, 0)
s = 136: (0, 24, 0, 29, 0, 55, 0, 0, 0, 0, 30, 0)
s = 137: (0, 29, 0, 34, 0, 36, 0, 0, 0, 0, 19, 0)
s = 138: (0, 35, 0, 16, 0, 50, 0, 0, 0, 0, 33, 0)
s = 139: (0, 32, 0, 13, 0, 35, 0, 0, 0, 0, 28, 0)
s = 140: (0, 36, 0, 25, 0, 47, 0, 0, 0, 0, 18, 0)
s = 141: (0, 40, 0, 20, 0, 42, 0, 0, 0, 0, 13, 0)
s = 142: (0, 24, 0, 23, 0, 44, 0, 0, 0, 0, 20, 0)
s = 143: (0, 20, 0, 28, 0, 48, 0, 0, 0, 0, 14, 0)
s = 144: (0, 40, 0, 13, 0, 37, 0, 0, 0, 0, 13, 0)
s = 145: (0, 19, 0, 20, 0, 34, 0, 0, 0, 0, 18, 0)
s = 146: (0, 30, 0, 15, 0, 39, 0, 0, 0, 0, 21, 0)
s = 147: (0, 44, 0, 34, 0, 31, 0, 0, 0, 0, 10, 0)
s = 148: (0, 55, 0, 20, 0, 52, 0, 0, 0, 0, 20, 0)
s = 149: (0, 22, 0, 15, 0, 49, 0, 0, 0, 0, 15, 0)
s = 150: (0, 34, 0, 21, 0, 35, 0, 0, 0, 0, 20, 0)
s = 151: (0, 35, 0, 34, 0, 33, 0, 0, 0, 0, 15, 0)
s = 152: (0, 27, 0, 15, 0, 67, 0, 0, 0, 0, 19, 0)
s = 153: (0, 29, 0, 21, 0, 47, 0, 0, 0, 0, 19, 0)
s = 154: (0, 20, 0, 22, 0, 37, 0, 0, 0, 0, 22, 0)
s = 155: (0, 39, 0, 21, 0, 32, 0, 0, 0, 0, 21, 0)
s = 156: (0, 48, 0, 26, 0, 35, 0, 0, 0, 0, 12, 0)
s = 157: (0, 48, 0, 18, 0, 74, 0, 0, 0, 0, 14, 0)
s = 158: (0, 22, 0, 17, 0, 60, 0, 0, 0, 0, 19, 0)
s = 159: (0, 24, 0, 19, 0, 43, 0, 0, 0, 0, 22, 0)
s = 160: (0, 57, 0, 21, 0, 31, 0, 0, 0, 0, 14, 0)
s = 161: (0, 34, 0, 12, 0, 48, 0, 0, 0, 0, 21, 0)
s = 162: (0, 40, 0, 19, 0, 41, 0, 0, 0, 0, 22, 0)
s = 163: (0, 28, 0, 24, 0, 25, 0, 0, 0, 0, 10, 0)
s = 164: (0, 40, 0, 17, 0, 30, 0, 0, 0, 0, 21, 0)
s = 165: (0, 43, 0, 35, 0, 29, 0, 0, 0, 0, 17, 0)
s = 166: (0, 30, 0, 24, 0, 36, 0, 0, 0, 0, 18, 0)
s = 167: (0, 30, 0, 19, 0, 52, 0, 0, 0, 0, 22, 0)
s = 168: (0, 39, 0, 18, 0, 32, 0, 0, 0, 0, 18, 0)
s = 169: (0, 35, 0, 30, 0, 28, 0, 0, 0, 0, 25, 0)
s = 170: (0, 18, 0, 20, 0, 66, 0, 0, 0, 0, 23, 0)
s = 171: (0, 22, 0, 15, 0, 59, 0, 0, 0, 0, 22, 0)
s = 172: (0, 21, 0, 30, 0, 58, 0, 0, 0, 0, 14, 0)
s = 173: (0, 32, 0, 28, 0, 47, 0, 0, 0, 0, 22, 0)
s = 174: (0, 34, 0, 26, 0, 45, 0, 0, 0, 0, 22, 0)
s = 175: (0, 22, 0, 15, 0, 29, 0, 0, 0, 0, 16, 0)
s = 176: (0, 17, 0, 16, 0, 52, 0, 0, 0, 0, 21, 0)
s = 177: (0, 50, 0, 32, 0, 32, 0, 0, 0, 0, 19, 0)
s = 178: (0, 32, 0, 16, 0, 45, 0, 0, 0, 0, 19, 0)
s = 179: (0, 26, 0, 11, 0, 36, 0, 0, 0, 0, 20, 0)
s = 180: (0, 39, 0, 31, 0, 59, 0, 0, 0, 0, 20, 0)
s = 181: (0, 28, 0, 16, 0, 58, 0, 0, 0, 0, 12, 0)
s = 182: (0, 19, 0, 18, 0, 62, 0, 0, 0, 0, 26, 0)
s = 183: (0, 29, 0, 20, 0, 37, 0, 0, 0, 0, 16, 0)
s = 184: (0, 19, 0, 16, 0, 46, 0, 0, 0, 0, 17, 0)
s = 185: (0, 50, 0, 18, 0, 44, 0, 0, 0, 0, 17, 0)
s = 186: (0, 30, 0, 20, 0, 28, 0, 0, 0, 0, 21, 0)
s = 187: (0, 28, 0, 31, 0, 39, 0, 0, 0, 0, 21, 0)
s = 188: (0, 40, 0, 17, 0, 52, 0, 0, 0, 0, 11, 0)
s = 189: (0, 38, 0, 23, 0, 40, 0, 0, 0, 0, 24, 0)
s = 190: (0, 23, 0, 20, 0, 37, 0, 0, 0, 0, 28, 0)
s = 191: (0, 59, 0, 26, 0, 49, 0, 0, 0, 0, 20, 0)
s = 192: (0, 18, 0, 21, 0, 40, 0, 0, 0, 0, 13, 0)
s = 193: (0, 35, 0, 19, 0, 48, 0, 0, 0, 0, 18, 0)
s = 194: (0, 44, 0, 22, 0, 62, 0, 0, 0, 0, 13, 0)
s = 195: (0, 35, 0, 16, 0, 46, 0, 0, 0, 0, 15, 0)
s = 196: (0, 24, 0, 24, 0, 28, 0, 0, 0, 0, 17, 0)
s = 197: (0, 18, 0, 18, 0, 35, 0, 0, 0, 0, 13, 0)
s = 198: (0, 27, 0, 25, 0, 33, 0, 0, 0, 0, 18, 0)
s = 199: (0, 45, 0, 39, 0, 35, 0, 0, 0, 0, 21, 0)
s = 200: (0, 25, 0, 22, 0, 26, 0, 0, 0, 0, 23, 0)
------------------------------------------------------------------------
RESOURCE k = 3
s = 1: (0, 0, 36, 0, 17, 0, 30, 2, 6, 50, 0, 0)
s = 2: (0, 0, 41, 0, 19, 0, 29, 4, 9, 20, 0, 0)
s = 3: (0, 0, 28, 0, 15, 0, 24, 3, 7, 34, 0, 0)
s = 4: (0, 0, 26, 0, 18, 0, 26, 4, 5, 17, 0, 0)
s = 5: (0, 0, 26, 0, 12, 0, 32, 3, 6, 23, 0, 0)
s = 6: (0, 0, 33, 0, 22, 0, 28, 4, 6, 30, 0, 0)
s = 7: (0, 0, 49, 0, 17, 0, 27, 3, 5, 23, 0, 0)
s = 8: (0, 0, 30, 0, 29, 0, 22, 5, 4, 23, 0, 0)
s = 9: (0, 0, 24, 0, 35, 0, 22, 4, 4, 49, 0, 0)
s = 10: (0, 0, 34, 0, 20, 0, 35, 2, 4, 21, 0, 0)
s = 11: (0, 0, 36, 0, 14, 0, 36, 3, 6, 32, 0, 0)
s = 12: (0, 0, 33, 0, 18, 0, 20, 2, 4, 35, 0, 0)
s = 13: (0, 0, 35, 0, 39, 0, 32, 3, 5, 25, 0, 0)
s = 14: (0, 0, 31, 0, 22, 0, 20, 4, 3, 28, 0, 0)
s = 15: (0, 0, 34, 0, 19, 0, 37, 3, 7, 43, 0, 0)
s = 16: (0, 0, 34, 0, 19, 0, 45, 3, 4, 30, 0, 0)
s = 17: (0, 0, 44, 0, 18, 0, 33, 4, 5, 25, 0, 0)
s = 18: (0, 0, 65, 0, 15, 0, 23, 5, 4, 40, 0, 0)
s = 19: (0, 0, 38, 0, 21, 0, 31, 3, 3, 31, 0, 0)
s = 20: (0, 0, 23, 0, 15, 0, 31, 3, 6, 27, 0, 0)
s = 21: (0, 0, 36, 0, 20, 0, 25, 2, 3, 18, 0, 0)
s = 22: (0, 0, 44, 0, 21, 0, 48, 5, 6, 35, 0, 0)
s = 23: (0, 0, 31, 0, 15, 0, 32, 3, 3, 18, 0, 0)
s = 24: (0, 0, 20, 0, 32, 0, 29, 3, 3, 28, 0, 0)
s = 25: (0, 0, 36, 0, 22, 0, 38, 3, 6, 33, 0, 0)
s = 26: (0, 0, 32, 0, 26, 0, 32, 4, 4, 31, 0, 0)
s = 27: (0, 0, 26, 0, 19, 0, 32, 4, 3, 43, 0, 0)
s = 28: (0, 0, 62, 0, 16, 0, 55, 4, 7, 27, 0, 0)
s = 29: (0, 0, 33, 0, 28, 0, 28, 5, 4, 32, 0, 0)
s = 30: (0, 0, 29, 0, 15, 0, 32, 3, 5, 28, 0, 0)
s = 31: (0, 0, 36, 0, 25, 0, 44, 4, 6, 26, 0, 0)
s = 32: (0, 0, 39, 0, 15, 0, 35, 3, 3, 22, 0, 0)
s = 33: (0, 0, 54, 0, 16, 0, 28, 4, 4, 26, 0, 0)
s = 34: (0, 0, 53, 0, 31, 0, 47, 4, 4, 47, 0, 0)
s = 35: (0, 0, 61, 0, 21, 0, 31, 3, 5, 22, 0, 0)
s = 36: (0, 0, 34, 0, 21, 0, 26, 3, 5, 28, 0, 0)
s = 37: (0, 0, 28, 0, 27, 0, 18, 4, 5, 26, 0, 0)
s = 38: (0, 0, 23, 0, 14, 0, 21, 4, 3, 26, 0, 0)
s = 39: (0, 0, 34, 0, 15, 0, 37, 4, 4, 21, 0, 0)
s = 40: (0, 0, 26, 0, 21, 0, 20, 5, 5, 38, 0, 0)
s = 41: (0, 0, 22, 0, 14, 0, 27, 3, 4, 28, 0, 0)
s = 42: (0, 0, 44, 0, 15, 0, 22, 4, 7, 21, 0, 0)
s = 43: (0, 0, 30, 0, 31, 0, 42, 4, 4, 31, 0, 0)
s = 44: (0, 0, 49, 0, 23, 0, 28, 5, 5, 25, 0, 0)
s = 45: (0, 0, 34, 0, 29, 0, 36, 5, 5, 24, 0, 0)
s = 46: (0, 0, 39, 0, 25, 0, 39, 2, 3, 43, 0, 0)
s = 47: (0, 0, 29, 0, 17, 0, 28, 4, 4, 26, 0, 0)
s = 48: (0, 0, 32, 0, 14, 0, 41, 4, 4, 46, 0, 0)
s = 49: (0, 0, 27, 0, 20, 0, 27, 6, 5, 27, 0, 0)
s = 50: (0, 0, 45, 0, 18, 0, 50, 3, 4, 41, 0, 0)
s = 51: (0, 0, 41, 0, 25, 0, 37, 4, 4, 41, 0, 0)
s = 52: (0, 0, 58, 0, 18, 0, 37, 2, 6, 30, 0, 0)
s = 53: (0, 0, 28, 0, 19, 0, 28, 2, 4, 22, 0, 0)
s = 54: (0, 0, 28, 0, 21, 0, 38, 4, 4, 23, 0, 0)
s = 55: (0, 0, 51, 0, 17, 0, 41, 3, 4, 38, 0, 0)
s = 56: (0, 0, 21, 0, 14, 0, 22, 3, 4, 23, 0, 0)
s = 57: (0, 0, 41, 0, 28, 0, 35, 3, 4, 33, 0, 0)
s = 58: (0, 0, 22, 0, 30, 0, 40, 3, 4, 21, 0, 0)
s = 59: (0, 0, 49, 0, 13, 0, 22, 3, 5, 29, 0, 0)
s = 60: (0, 0, 23, 0, 34, 0, 39, 4, 4, 47, 0, 0)
s = 61: (0, 0, 26, 0, 19, 0, 25, 3, 4, 41, 0, 0)
s = 62: (0, 0, 36, 0, 18, 0, 26, 4, 6, 35, 0, 0)
s = 63: (0, 0, 23, 0, 23, 0, 31, 3, 5, 23, 0, 0)
s = 64: (0, 0, 21, 0, 23, 0, 27, 3, 4, 18, 0, 0)
s = 65: (0, 0, 40, 0, 30, 0, 24, 3, 3, 22, 0, 0)
s = 66: (0, 0, 47, 0, 21, 0, 36, 4, 3, 22, 0, 0)
s = 67: (0, 0, 31, 0, 16, 0, 29, 2, 4, 27, 0, 0)
s = 68: (0, 0, 46, 0, 25, 0, 32, 3, 5, 28, 0, 0)
s = 69: (0, 0, 33, 0, 22, 0, 42, 5, 5, 36, 0, 0)
s = 70: (0, 0, 24, 0, 21, 0, 33, 4, 6, 29, 0, 0)
s = 71: (0, 0, 36, 0, 26, 0, 16, 5, 4, 30, 0, 0)
s = 72: (0, 0, 42, 0, 22, 0, 31, 3, 4, 19, 0, 0)
s = 73: (0, 0, 27, 0, 31, 0, 18, 3, 3, 26, 0, 0)
s = 74: (0, 0, 39, 0, 11, 0, 27, 2, 6, 33, 0, 0)
s = 75: (0, 0, 25, 0, 23, 0, 26, 3, 4, 30, 0, 0)
s = 76: (0, 0, 47, 0, 15, 0, 25, 4, 5, 40, 0, 0)
s = 77: (0, 0, 42, 0, 24, 0, 20, 5, 5, 43, 0, 0)
s = 78: (0, 0, 43, 0, 34, 0, 47, 2, 3, 48, 0, 0)
s = 79: (0, 0, 34, 0, 23, 0, 27, 3, 4, 28, 0, 0)
s = 80: (0, 0, 45, 0, 36, 0, 25, 3, 5, 32, 0, 0)
s = 81: (0, 0, 37, 0, 23, 0, 36, 3, 4, 32, 0, 0)
s = 82: (0, 0, 59, 0, 24, 0, 37, 4, 6, 21, 0, 0)
s = 83: (0, 0, 50, 0, 24, 0, 23, 5, 4, 25, 0, 0)
s = 84: (0, 0, 28, 0, 40, 0, 44, 2, 4, 36, 0, 0)
s = 85: (0, 0, 26, 0, 21, 0, 26, 3, 7, 32, 0, 0)
s = 86: (0, 0, 64, 0, 24, 0, 28, 3, 5, 48, 0, 0)
s = 87: (0, 0, 25, 0, 20, 0, 21, 4, 5, 32, 0, 0)
s = 88: (0, 0, 34, 0, 20, 0, 37, 3, 4, 20, 0, 0)
s = 89: (0, 0, 38, 0, 32, 0, 31, 2, 5, 37, 0, 0)
s = 90: (0, 0, 42, 0, 22, 0, 20, 5, 4, 50, 0, 0)
s = 91: (0, 0, 34, 0, 20, 0, 31, 3, 5, 25, 0, 0)
s = 92: (0, 0, 42, 0, 21, 0, 43, 3, 4, 45, 0, 0)
s = 93: (0, 0, 44, 0, 28, 0, 53, 3, 4, 21, 0, 0)
s = 94: (0, 0, 36, 0, 28, 0, 39, 4, 7, 24, 0, 0)
s = 95: (0, 0, 21, 0, 22, 0, 22, 4, 4, 20, 0, 0)
s = 96: (0, 0, 50, 0, 15, 0, 28, 4, 4, 19, 0, 0)
s = 97: (0, 0, 36, 0, 16, 0, 19, 2, 3, 32, 0, 0)
s = 98: (0, 0, 58, 0, 23, 0, 25, 3, 5, 23, 0, 0)
s = 99: (0, 0, 31, 0, 20, 0, 26, 4, 3, 30, 0, 0)
s = 100: (0, 0, 45, 0, 19, 0, 37, 2, 6, 27, 0, 0)
s = 101: (0, 0, 62, 0, 25, 0, 33, 4, 4, 32, 0, 0)
s = 102: (0, 0, 40, 0, 25, 0, 19, 4, 6, 44, 0, 0)
s = 103: (0, 0, 26, 0, 14, 0, 49, 3, 4, 20, 0, 0)
s = 104: (0, 0, 30, 0, 20, 0, 21, 3, 5, 24, 0, 0)
s = 105: (0, 0, 38, 0, 30, 0, 39, 3, 5, 28, 0, 0)
s = 106: (0, 0, 34, 0, 14, 0, 17, 5, 4, 28, 0, 0)
s = 107: (0, 0, 40, 0, 18, 0, 32, 4, 3, 31, 0, 0)
s = 108: (0, 0, 24, 0, 23, 0, 37, 4, 6, 36, 0, 0)
s = 109: (0, 0, 30, 0, 28, 0, 29, 4, 3, 28, 0, 0)
s = 110: (0, 0, 35, 0, 33, 0, 27, 4, 5, 26, 0, 0)
s = 111: (0, 0, 45, 0, 18, 0, 38, 4, 3, 36, 0, 0)
s = 112: (0, 0, 40, 0, 24, 0, 38, 4, 4, 21, 0, 0)
s = 113: (0, 0, 19, 0, 12, 0, 32, 3, 5, 25, 0, 0)
s = 114: (0, 0, 49, 0, 30, 0, 22, 4, 6, 40, 0, 0)
s = 115: (0, 0, 22, 0, 28, 0, 35, 5, 4, 23, 0, 0)
s = 116: (0, 0, 32, 0, 13, 0, 28, 5, 4, 30, 0, 0)
s = 117: (0, 0, 36, 0, 20, 0, 44, 4, 5, 22, 0, 0)
s = 118: (0, 0, 50, 0, 23, 0, 29, 3, 3, 32, 0, 0)
s = 119: (0, 0, 45, 0, 24, 0, 26, 3, 5, 30, 0, 0)
s = 120: (0, 0, 38, 0, 19, 0, 27, 4, 5, 32, 0, 0)
s = 121: (0, 0, 29, 0, 25, 0, 22, 3, 6, 28, 0, 0)
s = 122: (0, 0, 31, 0, 22, 0, 20, 2, 3, 26, 0, 0)
s = 123: (0, 0, 46, 0, 26, 0, 23, 3, 5, 34, 0, 0)
s = 124: (0, 0, 59, 0, 25, 0, 31, 3, 3, 26, 0, 0)
s = 125: (0, 0, 40, 0, 24, 0, 28, 4, 5, 18, 0, 0)
s = 126: (0, 0, 45, 0, 23, 0, 21, 5, 4, 30, 0, 0)
s = 127: (0, 0, 35, 0, 20, 0, 27, 2, 3, 30, 0, 0)
s = 128: (0, 0, 36, 0, 28, 0, 36, 2, 4, 24, 0, 0)
s = 129: (0, 0, 22, 0, 19, 0, 26, 3, 5, 25, 0, 0)
s = 130: (0, 0, 29, 0, 19, 0, 38, 3, 3, 27, 0, 0)
s = 131: (0, 0, 67, 0, 33, 0, 27, 3, 4, 24, 0, 0)
s = 132: (0, 0, 37, 0, 21, 0, 39, 5, 3, 48, 0, 0)
s = 133: (0, 0, 37, 0, 25, 0, 28, 4, 4, 21, 0, 0)
s = 134: (0, 0, 23, 0, 37, 0, 50, 4, 5, 22, 0, 0)
s = 135: (0, 0, 42, 0, 34, 0, 30, 4, 3, 25, 0, 0)
s = 136: (0, 0, 31, 0, 19, 0, 17, 3, 5, 28, 0, 0)
s = 137: (0, 0, 22, 0, 14, 0, 33, 3, 4, 23, 0, 0)
s = 138: (0, 0, 32, 0, 24, 0, 37, 4, 6, 38, 0, 0)
s = 139: (0, 0, 43, 0, 25, 0, 35, 4, 3, 22, 0, 0)
s = 140: (0, 0, 27, 0, 24, 0, 25, 3, 4, 32, 0, 0)
s = 141: (0, 0, 26, 0, 13, 0, 46, 3, 5, 43, 0, 0)
s = 142: (0, 0, 30, 0, 21, 0, 22, 5, 5, 28, 0, 0)
s = 143: (0, 0, 36, 0, 34, 0, 30, 3, 4, 45, 0, 0)
s = 144: (0, 0, 26, 0, 20, 0, 18, 4, 6, 56, 0, 0)
s = 145: (0, 0, 50, 0, 26, 0, 19, 4, 3, 33, 0, 0)
s = 146: (0, 0, 36, 0, 20, 0, 38, 3, 3, 23, 0, 0)
s = 147: (0, 0, 41, 0, 15, 0, 41, 3, 5, 22, 0, 0)
s = 148: (0, 0, 46, 0, 22, 0, 24, 4, 3, 31, 0, 0)
s = 149: (0, 0, 50, 0, 14, 0, 29, 4, 5, 27, 0, 0)
s = 150: (0, 0, 26, 0, 16, 0, 40, 4, 4, 29, 0, 0)
s = 151: (0, 0, 32, 0, 30, 0, 22, 4, 4, 23, 0, 0)
s = 152: (0, 0, 34, 0, 26, 0, 27, 6, 5, 18, 0, 0)
s = 153: (0, 0, 26, 0, 19, 0, 31, 6, 5, 20, 0, 0)
s = 154: (0, 0, 59, 0, 27, 0, 26, 3, 6, 19, 0, 0)
s = 155: (0, 0, 56, 0, 34, 0, 34, 3, 4, 44, 0, 0)
s = 156: (0, 0, 52, 0, 29, 0, 24, 4, 6, 41, 0, 0)
s = 157: (0, 0, 33, 0, 24, 0, 34, 3, 5, 18, 0, 0)
s = 158: (0, 0, 28, 0, 23, 0, 21, 3, 5, 29, 0, 0)
s = 159: (0, 0, 49, 0, 35, 0, 26, 3, 4, 30, 0, 0)
s = 160: (0, 0, 39, 0, 26, 0, 35, 3, 6, 27, 0, 0)
s = 161: (0, 0, 37, 0, 16, 0, 38, 3, 3, 30, 0, 0)
s = 162: (0, 0, 42, 0, 24, 0, 54, 3, 6, 24, 0, 0)
s = 163: (0, 0, 53, 0, 32, 0, 21, 5, 3, 48, 0, 0)
s = 164: (0, 0, 38, 0, 19, 0, 28, 3, 4, 30, 0, 0)
s = 165: (0, 0, 32, 0, 18, 0, 21, 6, 4, 23, 0, 0)
s = 166: (0, 0, 34, 0, 17, 0, 25, 2, 4, 20, 0, 0)
s = 167: (0, 0, 41, 0, 16, 0, 21, 4, 5, 30, 0, 0)
s = 168: (0, 0, 29, 0, 15, 0, 40, 4, 6, 21, 0, 0)
s = 169: (0, 0, 26, 0, 20, 0, 19, 3, 3, 28, 0, 0)
s = 170: (0, 0, 26, 0, 22, 0, 41, 3, 3, 20, 0, 0)
s = 171: (0, 0, 26, 0, 30, 0, 38, 2, 5, 30, 0, 0)
s = 172: (0, 0, 23, 0, 13, 0, 27, 4, 5, 38, 0, 0)
s = 173: (0, 0, 23, 0, 25, 0, 25, 3, 3, 34, 0, 0)
s = 174: (0, 0, 26, 0, 14, 0, 25, 4, 7, 29, 0, 0)
s = 175: (0, 0, 24, 0, 22, 0, 33, 4, 5, 41, 0, 0)
s = 176: (0, 0, 38, 0, 14, 0, 20, 4, 3, 41, 0, 0)
s = 177: (0, 0, 25, 0, 30, 0, 32, 4, 3, 23, 0, 0)
s = 178: (0, 0, 58, 0, 27, 0, 29, 4, 6, 23, 0, 0)
s = 179: (0, 0, 45, 0, 16, 0, 51, 3, 7, 25, 0, 0)
s = 180: (0, 0, 22, 0, 28, 0, 30, 3, 3, 34, 0, 0)
s = 181: (0, 0, 41, 0, 15, 0, 23, 3, 4, 25, 0, 0)
s = 182: (0, 0, 49, 0, 15, 0, 28, 4, 3, 35, 0, 0)
s = 183: (0, 0, 43, 0, 21, 0, 40, 3, 4, 23, 0, 0)
s = 184: (0, 0, 23, 0, 15, 0, 22, 3, 5, 32, 0, 0)
s = 185: (0, 0, 45, 0, 22, 0, 31, 3, 3, 28, 0, 0)
s = 186: (0, 0, 20, 0, 29, 0, 26, 2, 7, 16, 0, 0)
s = 187: (0, 0, 56, 0, 29, 0, 23, 3, 5, 26, 0, 0)
s = 188: (0, 0, 21, 0, 18, 0, 34, 3, 3, 37, 0, 0)
s = 189: (0, 0, 51, 0, 21, 0, 31, 3, 4, 42, 0, 0)
s = 190: (0, 0, 32, 0, 16, 0, 37, 2, 6, 28, 0, 0)
s = 191: (0, 0, 59, 0, 16, 0, 26, 5, 4, 31, 0, 0)
s = 192: (0, 0, 40, 0, 35, 0, 21, 2, 3, 26, 0, 0)
s = 193: (0, 0, 33, 0, 23, 0, 41, 4, 4, 26, 0, 0)
s = 194: (0, 0, 22, 0, 21, 0, 29, 3, 3, 31, 0, 0)
s = 195: (0, 0, 40, 0, 22, 0, 38, 3, 5, 33, 0, 0)
s = 196: (0, 0, 36, 0, 26, 0, 35, 4, 4, 21, 0, 0)
s = 197: (0, 0, 47, 0, 25, 0, 26, 4, 4, 33, 0, 0)
s = 198: (0, 0, 60, 0, 25, 0, 36, 3, 5, 31, 0, 0)
s = 199: (0, 0, 42, 0, 19, 0, 27, 4, 5, 24, 0, 0)
s = 200: (0, 0, 45, 0, 20, 0, 24, 2, 5, 44, 0, 0)
************************************************************************
ES/LS-VALUES:
jobnr.   ES(i)    LS(i)
------------------------------------------------------------------------
  0        0        0
  1        0       33
  2        0       33
  3        0       52
  4        5       59
  5        7       41
  6       15       50
  7       20       56
  8       10       65
  9       22       58
 10       15       62
 11       31       68
************************************************************************
BIG-M-VALUES:
M1 = 46, M2 = 250
************************************************************************
